(set-info :smt-lib-version 2.6)
(set-logic QF_UFLRA)
(set-info :source |
MathSat group

|)
(set-info :category "random")
(set-info :status sat)
(declare-fun x0 () Real)
(declare-fun x1 () Real)
(declare-fun x2 () Real)
(declare-fun x3 () Real)
(declare-fun x4 () Real)
(declare-fun x5 () Real)
(declare-fun x6 () Real)
(declare-fun x7 () Real)
(declare-fun x8 () Real)
(declare-fun x9 () Real)
(declare-fun x10 () Real)
(declare-fun x11 () Real)
(declare-fun x12 () Real)
(declare-fun x13 () Real)
(declare-fun x14 () Real)
(declare-fun x15 () Real)
(declare-fun x16 () Real)
(declare-fun x17 () Real)
(declare-fun x18 () Real)
(declare-fun x19 () Real)
(declare-fun x20 () Real)
(declare-fun x21 () Real)
(declare-fun x22 () Real)
(declare-fun x23 () Real)
(declare-fun x24 () Real)
(declare-fun x25 () Real)
(declare-fun x26 () Real)
(declare-fun x27 () Real)
(declare-fun x28 () Real)
(declare-fun x29 () Real)
(declare-fun x30 () Real)
(declare-fun x31 () Real)
(declare-fun x32 () Real)
(declare-fun x33 () Real)
(declare-fun x34 () Real)
(declare-fun x35 () Real)
(declare-fun x36 () Real)
(declare-fun x37 () Real)
(declare-fun x38 () Real)
(declare-fun x39 () Real)
(declare-fun f0_1 (Real) Real)
(declare-fun f0_2 (Real Real) Real)
(declare-fun f0_3 (Real Real Real) Real)
(declare-fun f0_4 (Real Real Real Real) Real)
(declare-fun P0 () Bool)
(declare-fun P1 () Bool)
(declare-fun P2 () Bool)
(declare-fun P3 () Bool)
(declare-fun P4 () Bool)
(declare-fun P5 () Bool)
(declare-fun P6 () Bool)
(declare-fun P7 () Bool)
(declare-fun P8 () Bool)
(declare-fun P9 () Bool)
(declare-fun P10 () Bool)
(declare-fun P11 () Bool)
(declare-fun P12 () Bool)
(declare-fun P13 () Bool)
(declare-fun P14 () Bool)
(declare-fun P15 () Bool)
(declare-fun P16 () Bool)
(declare-fun P17 () Bool)
(declare-fun P18 () Bool)
(declare-fun P19 () Bool)
(declare-fun P20 () Bool)
(declare-fun P21 () Bool)
(declare-fun P22 () Bool)
(declare-fun P23 () Bool)
(declare-fun P24 () Bool)
(declare-fun P25 () Bool)
(declare-fun P26 () Bool)
(declare-fun P27 () Bool)
(declare-fun P28 () Bool)
(declare-fun P29 () Bool)
(declare-fun P30 () Bool)
(declare-fun P31 () Bool)
(declare-fun P32 () Bool)
(declare-fun P33 () Bool)
(declare-fun P34 () Bool)
(declare-fun P35 () Bool)
(declare-fun P36 () Bool)
(declare-fun P37 () Bool)
(declare-fun P38 () Bool)
(declare-fun P39 () Bool)
(assert (let ((?v_24 (* 43 x19)) (?v_161 (= (- (+ (* 52 x7) (* 52 x11)) (* 53 x19)) 28)) (?v_39 (* 3 x35)) (?v_73 (<= (+ (- (* 17 x26) (* 6 x34)) (* 9 x35)) 41)) (?v_71 (<= (- (+ (* 6 x2) (* 39 x10)) (* 31 x37)) 15)) (?v_47 (= (- (+ (* 16 x1) (* 42 x4)) (* 17 x27)) 38)) (?v_98 (<= (+ (- (* 17 x34) (* 5 x20)) (* 23 x37)) 6)) (?v_111 (distinct (f0_1 x11) (f0_2 x19 x3))) (?v_75 (distinct (f0_2 x34 x20) x18)) (?v_29 (= (f0_2 x35 x26) x2)) (?v_3 (= (f0_2 x10 x8) (f0_2 x31 x23))) (?v_53 (distinct (f0_1 x35) (f0_1 x27))) (?v_78 (f0_1 x30))) (let ((?v_166 (= (f0_2 x37 x9) ?v_78)) (?v_5 (f0_1 x21))) (let ((?v_21 (= ?v_5 x23)) (?v_14 (= x6 (f0_2 x10 x24))) (?v_44 (distinct (f0_2 x12 x12) (f0_1 x12))) (?v_49 (distinct (f0_2 x1 x36) x9)) (?v_83 (= (f0_2 x11 x26) (f0_1 x23))) (?v_91 (f0_1 x19))) (let ((?v_105 (distinct x5 ?v_91)) (?v_201 (= x33 x8)) (?v_28 (distinct x22 (f0_1 x34))) (?v_136 (= (f0_2 x38 x4) (f0_2 x11 x2))) (?v_97 (distinct (f0_1 x25) x2)) (?v_66 (f0_1 x8))) (let ((?v_128 (distinct x3 ?v_66)) (?v_58 (distinct x22 (f0_2 x23 x25))) (?v_82 (distinct x20 (f0_1 x33))) (?v_57 (distinct x36 (f0_1 x37))) (?v_113 (= (f0_2 x3 x19) x38)) (?v_8 (distinct (f0_2 x36 x12) ?v_78)) (?v_48 (f0_1 x24))) (let ((?v_56 (= ?v_48 (f0_2 x7 x24))) (?v_96 (= (f0_1 x39) (f0_1 x9))) (?v_101 (distinct (f0_2 x30 x38) (f0_2 x35 x13))) (?v_153 (= x10 ?v_66)) (?v_6 (distinct x1 x25)) (?v_43 (distinct (f0_2 x22 x22) (f0_1 x16))) (?v_191 (distinct x3 x14)) (?v_168 (distinct x26 x20)) (?v_30 (= x37 x20)) (?v_92 (f0_2 x28 x9))) (let ((?v_184 (distinct ?v_91 ?v_92)) (?v_133 (distinct x30 ?v_5)) (?v_169 (distinct (f0_1 x3) (f0_1 x17))) (?v_208 (= x33 (f0_1 x38))) (?v_10 (distinct ?v_48 (f0_1 x10))) (?v_61 (= (f0_2 x12 x36) ?v_92)) (?v_192 (distinct (f0_1 x32) x13)) (?v_86 (= x20 x8)) (?v_72 (distinct (f0_2 x13 x18) (f0_2 x18 x34))) (?v_9 (not ?v_14)) (?v_45 (not ?v_6)) (?v_31 (not ?v_29)) (?v_140 (not P6)) (?v_18 (not P25)) (?v_55 (not P35)) (?v_70 (not P29)) (?v_2 (not P30)) (?v_127 (not ?v_83)) (?v_60 (not ?v_3)) (?v_34 (not P9)) (?v_167 (not ?v_191))) (let ((?v_35 (not ?v_169)) (?v_13 (not P12)) (?v_11 (not ?v_98)) (?v_12 (not P2)) (?v_27 (not ?v_10)) (?v_81 (not P32)) (?v_20 (not P21)) (?v_176 (not P27)) (?v_126 (not ?v_73)) (?v_40 (not P0)) (?v_42 (not P37)) (?v_63 (not ?v_21)) (?v_110 (not ?v_86)) (?v_119 (not ?v_101)) (?v_90 (not P23)) (?v_33 (not P20)) (?v_46 (not P19)) (?v_77 (not P13)) (?v_88 (not P38)) (?v_94 (not ?v_72)) (?v_137 (not ?v_53)) (?v_114 (not P24)) (?v_130 (not ?v_30)) (?v_80 (not ?v_43)) (?v_124 (not ?v_56)) (?v_102 (not ?v_161)) (?v_120 (not ?v_57)) (?v_59 (not ?v_58)) (?v_87 (not P22)) (?v_174 (not P34)) (?v_106 (not P3)) (?v_95 (not P28)) (?v_146 (not P1)) (?v_116 (not ?v_153)) (?v_163 (not ?v_82)) (?v_117 (not P7)) (?v_142 (not ?v_71)) (?v_148 (not ?v_75)) (?v_89 (not ?v_166)) (?v_195 (not P15)) (?v_84 (not ?v_44)) (?v_154 (not ?v_96)) (?v_151 (not ?v_192)) (?v_145 (not ?v_8)) (?v_132 (not ?v_208)) (?v_123 (not ?v_184)) (?v_155 (not ?v_49)) (?v_171 (not P4)) (?v_122 (not P16)) (?v_183 (not ?v_111)) (?v_193 (not ?v_113)) (?v_121 (not P18)) (?v_131 (not P39)) (?v_159 (not ?v_28))) (let ((?v_206 (or ?v_121 ?v_126)) (?v_179 (not P11)) (?v_164 (not ?v_168)) (?v_144 (not P33)) (?v_196 (not P14)) (?v_178 (not ?v_47)) (?v_173 (not P10)) (?v_157 (not ?v_133)) (?v_187 (not ?v_136)) (?v_162 (not P36)) (?v_143 (not ?v_128)) (?v_152 (not ?v_61)) (?v_177 (not P31)) (?v_198 (not P17)) (?v_197 (not P26))) (let ((?v_194 (or ?v_197 ?v_59)) (?v_207 (not ?v_105)) (?v_200 (not P8)) (?v_189 (not ?v_97)) (?v_205 (not ?v_201)) (?v_99 (= (+ (* 15 x35) (* 12 x33)) 47))) (let ((?v_1 (not ?v_99)) (?v_32 (<= (+ (- (* 23 x1) 0) (* 50 x13)) 28))) (let ((?v_108 (not ?v_32)) (?v_50 (<= (+ (* 56 x8) (* 5 x28) (* 15 x16)) 56)) (?v_100 (<= (+ (* 45 x26) (* 22 x38) (* 40 x29)) 17))) (let ((?v_52 (not ?v_100)) (?v_65 (<= (- (+ (* 6 x1) (* 29 x22)) x22) 0))) (let ((?v_165 (not ?v_65)) (?v_129 (not ?v_50)) (?v_190 (< (+ (* 48 x25) (* 47 x32)) 47))) (let ((?v_186 (not ?v_190)) (?v_170 (< (- (* 42 x16) 0) (- 8))) (?v_41 (<= (+ (* 47 x8) (* 18 x8) (* 28 x35)) (- 44)))) (let ((?v_138 (not ?v_41)) (?v_79 (<= (- (- (* (- 42) x29) (* 31 x15)) (* 35 x7)) 0))) (let ((?v_0 (not ?v_79)) (?v_51 (= (- (- (* 42 x23) (* 24 x4)) (* 17 x33)) (- 20)))) (let ((?v_112 (not ?v_51)) (?v_25 (< (- (- (* (- 6) x12) (* 39 x29)) x1) (- 27))) (?v_76 (< (- (- (* (- 47) x5) (* 13 x29)) (* 25 x15)) 56))) (let ((?v_19 (not ?v_76)) (?v_26 (< (- (- ?v_24 ?v_39) (* 5 x8)) (- 39)))) (let ((?v_62 (not ?v_26)) (?v_4 (< (+ (- (* (- 37) x25) (* 33 x19)) (* 55 x36)) 51)) (?v_23 (< (- (- (* (- 30) x32) (* 11 x18)) (* 43 x24)) 28))) (let ((?v_54 (not ?v_23)) (?v_37 (< (+ (* (- 22) x25) (* 32 x6) (* 44 x17)) 24)) (?v_15 (< (+ (* 36 x13) (* 21 x14) (* 35 x28)) (- 50))) (?v_16 (= (+ (- (* (- 18) x27) (* 33 x1)) (* 20 x8)) 14)) (?v_104 (<= (- (- (* 42 x34) (* 51 x19)) (* 28 x20)) (- 54)))) (let ((?v_7 (not ?v_104)) (?v_134 (<= (+ (* (- 46) x6) (* 16 x19) (* 39 x18)) (- 17)))) (let ((?v_141 (not ?v_134)) (?v_36 (distinct (- (- (* (- 24) x37) (* 50 x26)) x19) 27)) (?v_17 (<= (- (- (* (- 3) x38) (* 42 x35)) (* 50 x12)) (- 32))) (?v_22 (distinct (+ (- (* (- 50) x24) (* 11 x26)) (* 35 x31)) 59))) (let ((?v_150 (not ?v_22)) (?v_147 (<= (- (- (* (- 47) x3) (* 14 x33)) (* 25 x5)) 11))) (let ((?v_199 (not ?v_147)) (?v_38 (<= (- (- (* (- 22) x32) (* 34 x23)) (* 56 x17)) 53)) (?v_135 (< (+ (- (* (- 3) x23) (* 43 x6)) (* 45 x16)) (- 53))) (?v_74 (= (- (- ?v_24 (* 2 x14)) (* 41 x19)) (- 16))) (?v_185 (not ?v_25)) (?v_109 (distinct (- (- (* 30 x26) (* 23 x20)) (* 3 x4)) (- 59)))) (let ((?v_160 (not ?v_109)) (?v_203 (distinct (- (- (* (- 21) x38) ?v_39) (* 42 x28)) 42))) (let ((?v_69 (not ?v_203)) (?v_149 (< (- (+ (* 57 x18) (* 8 x26)) (* 9 x11)) (- 42))) (?v_67 (<= (+ (- (* 56 x22) (* 53 x7)) (* 2 x38)) (- 32))) (?v_64 (not ?v_17)) (?v_85 (<= (- (+ (* 42 x21) (* 4 x20)) (* 8 x8)) (- 43))) (?v_156 (< (+ (- (* 53 x39) (* 33 x13)) (* 52 x14)) (- 1)))) (let ((?v_103 (not ?v_156)) (?v_68 (not ?v_67)) (?v_93 (not ?v_74)) (?v_118 (< (+ (* (- 47) x29) (* 37 x37) (* 7 x11)) 11)) (?v_107 (= (- (- (* 52 x29) (* 42 x25)) (* 45 x34)) (- 28)))) (let ((?v_175 (not ?v_107)) (?v_139 (not ?v_85)) (?v_125 (not ?v_16)) (?v_115 (not ?v_4)) (?v_180 (not ?v_38)) (?v_181 (not ?v_118)) (?v_172 (not ?v_135)) (?v_158 (not ?v_149)) (?v_182 (not ?v_37)) (?v_204 (not ?v_36)) (?v_188 (not ?v_15)) (?v_202 (or ?v_0 ?v_110))) (and (and (and (and (and (and (and (and (and (and (and (and (and (and (and (and (and (and (and (and (and (and (and (and (and (and (and (and (and (and (and (and (and (and (and (and (and (and (and (and (and (and (and (and (and (and (and (and (and (and (and (and (and (and (and (and (and (and (and (and (and (and (and (and (and (and (and (and (and (and (and (and (and (and (and (and (and (and (and (and (and (and (and (and (and (and (and (and (and (and (and (and (and (and (and (and (and (and (and (and (and (and (and (and (and (and (and (and (and (and (and (and (and (and (and (and (and (and (and (and (and (and (and (and (and (and (and (and (and (and (and (and (and (and (and (and (and (and (and (and (and (and (and (and (and (and (and (and (and (and (and (and (and (and (and (and (and (and (and (and (and (and (and (and (and (and (and (and (and (and (and (and (and (and (and (and (and (and (and (and (and (and (and (and (and (and (and (and (and (and (and (and (and (and (and (and (and (and (and (and (and (and (and (and (and (and (and (and (and (and (and (and (and (and (and (and (and (and (and (and (and (and (and (and (and (and (and (and (and (and (and (and (and (and (and (and (and (and (and (and (and (and (and (and (and (and (and (and (and (and (and (and (and (and (and (and (and (and (and (and (and (and (and (and (and (and (and (and (and (and (and (and (and (and (and (and (and (and (and (and (and (and (and (and (and (and (and (and (and (and (and (and (and (and (and (and (and (and (and (and (and (and (and (and (and (and (and (and (and (and (and (and (and (and (and (and (and (and (and (and (and (and (and (and (and (and (and (and (and (and (and (and (and (and (and (and (and (and (and (and (and (and (and (and (and (and (and (and (and (and (and (and (and (and (and (and (and (and (and (and (and (and (and (and (and (and (and (and (and (and (and (and (and (and (and (and (and (and (and (and (and (and (and (and (and (and (and (and (and (and (and (and (and (and (and (and (and (and (and (and (and (and (and (and (and (and (and (and (and (and (and (and (and (and (and (and (and (and (and (and (and (and (and (and (and (and (and (and (and (and (and (and (and (and (and (and (and (and (and (and (and (and (and (and (and (and (and (and (and (and (and (and (and (and (and (and (and (and (and (and (and (and (and (and (and (and (and (and (and (and (and (and (and (and (and (and (and (and (and (or (or ?v_170 ?v_138) ?v_133) (or (or ?v_0 P29) ?v_112)) (or (or ?v_9 P15) P7)) (or (or ?v_25 ?v_19) P25)) (or (or ?v_0 P22) ?v_45)) (or (or ?v_0 ?v_31) ?v_140)) (or (or ?v_113 ?v_18) ?v_1)) (or (or ?v_58 ?v_62) ?v_4)) (or (or ?v_30 ?v_55) ?v_1)) (or (or ?v_54 ?v_70) ?v_10)) (or (or ?v_2 ?v_37) ?v_127)) (or (or ?v_15 ?v_60) ?v_34)) (or (or ?v_2 ?v_3) ?v_167)) (or (or ?v_16 P24) ?v_4)) (or (or ?v_35 ?v_13) ?v_21)) (or (or P19 ?v_49) ?v_8)) (or (or ?v_11 ?v_6) ?v_7)) (or (or ?v_61 ?v_141) ?v_7)) (or (or ?v_8 ?v_97) P11)) (or (or ?v_36 ?v_9) ?v_12)) (or (or P10 ?v_17) ?v_150)) (or (or ?v_71 ?v_27) ?v_81)) (or (or P3 ?v_11) ?v_12)) (or (or ?v_199 ?v_13) ?v_20)) (or (or P25 ?v_14) ?v_38)) (or (or ?v_176 ?v_15) ?v_16)) (or (or P15 ?v_32) ?v_17)) (or (or ?v_18 ?v_135) ?v_126)) (or (or ?v_19 P27) ?v_57)) (or (or ?v_40 ?v_42) ?v_44)) (or (or ?v_0 ?v_20) ?v_63)) (or (or P17 ?v_22) ?v_23)) (or (or ?v_75 ?v_74) ?v_11)) (or (or ?v_110 ?v_185) ?v_26)) (or (or P33 P16) P19)) (or (or ?v_27 ?v_28) ?v_119)) (or (or ?v_90 ?v_28) P35)) (or (or P21 ?v_33) P35)) (or (or ?v_9 P2) ?v_29)) (or (or ?v_30 P4) P17)) (or (or ?v_31 ?v_108) ?v_8)) (or (or ?v_33 P36) ?v_43)) (or (or ?v_34 P21) ?v_35)) (or (or ?v_36 ?v_37) P22)) (or (or ?v_18 ?v_50) ?v_46)) (or (or ?v_19 ?v_15) ?v_52)) (or (or ?v_38 ?v_21) ?v_13)) (or (or ?v_47 P17) ?v_160)) (or (or P3 ?v_136) ?v_77)) (or (or ?v_88 ?v_69) ?v_94)) (or (or ?v_40 ?v_137) ?v_114)) (or (or ?v_41 ?v_42) ?v_130)) (or (or ?v_36 ?v_43) P7)) (or (or ?v_21 ?v_165) ?v_44)) (or (or ?v_45 ?v_46) (not P5))) (or (or P3 ?v_80) ?v_149)) (or (or P35 ?v_30) ?v_47)) (or (or P35 ?v_124) ?v_49)) (or (or ?v_129 ?v_51) ?v_23)) (or (or ?v_21 ?v_102) ?v_52)) (or (or ?v_53 ?v_54) ?v_10)) (or (or ?v_7 ?v_67) ?v_64)) (or (or ?v_44 ?v_55) ?v_56)) (or (or ?v_120 ?v_59) ?v_18)) (or (or P3 ?v_59) ?v_34)) (or (or P29 ?v_87) P28)) (or (or P12 ?v_60) P20)) (or (or P8 ?v_1) ?v_85)) (or (or ?v_41 ?v_174) P23)) (or (or ?v_46 ?v_106) ?v_61)) (or (or ?v_49 ?v_62) ?v_63)) (or (or ?v_64 ?v_65) ?v_21)) (or (or P5 ?v_128) ?v_95)) (or (or ?v_146 ?v_35) P4)) (or (or ?v_116 ?v_103) ?v_163)) (or (or ?v_42 ?v_105) ?v_68)) (or (or ?v_117 ?v_68) ?v_8)) (or (or ?v_69 ?v_70) ?v_142)) (or (or P22 ?v_4) ?v_7)) (or (or ?v_72 ?v_73) ?v_93)) (or (or ?v_148 ?v_76) ?v_77)) (or (or ?v_60 P20) ?v_76)) (or (or ?v_89 P7) ?v_79)) (or (or ?v_118 ?v_80) ?v_54)) (or (or ?v_81 ?v_195) ?v_3)) (or (or ?v_52 P5) ?v_82)) (or (or P24 P17) ?v_175)) (or (or ?v_83 ?v_42) ?v_84)) (or (or ?v_21 ?v_22) ?v_84)) (or (or ?v_139 P36) ?v_154)) (or (or ?v_86 ?v_151) ?v_40)) (or (or ?v_87 ?v_88) P19)) (or (or P23 ?v_32) ?v_145)) (or (or ?v_9 ?v_81) ?v_7)) (or (or ?v_89 ?v_82) ?v_132)) (or (or P9 ?v_62) ?v_90)) (or (or ?v_123 P32) ?v_80)) (or (or ?v_125 ?v_34) ?v_2)) (or (or ?v_0 P20) ?v_83)) (or (or ?v_93 P35) P23)) (or (or ?v_94 ?v_95) ?v_23)) (or (or ?v_96 P17) ?v_14)) (or (or ?v_28 P19) ?v_97)) (or (or ?v_22 ?v_59) ?v_115)) (or (or ?v_51 ?v_98) ?v_99)) (or (or ?v_100 ?v_47) P1)) (or (or ?v_101 ?v_95) ?v_19)) (or (or ?v_79 ?v_155) ?v_102)) (or (or ?v_18 ?v_171) ?v_103)) (or (or ?v_104 P19) ?v_105)) (or (or ?v_106 ?v_107) ?v_108)) (or (or ?v_111 P15) ?v_122)) (or (or ?v_109 ?v_110) ?v_70)) (or (or ?v_183 ?v_80) ?v_112)) (or (or ?v_69 P23) ?v_193)) (or (or ?v_107 ?v_33) P17)) (or (or ?v_68 ?v_112) ?v_88)) (or (or ?v_114 ?v_72) ?v_115)) (or (or ?v_111 ?v_116) ?v_77)) (or (or ?v_121 ?v_117) ?v_10)) (or (or ?v_59 ?v_96) ?v_131)) (or (or ?v_14 P12) P21)) (or (or ?v_118 ?v_119) ?v_120)) (or (or ?v_121 ?v_52) ?v_35)) (or (or ?v_73 ?v_122) ?v_6)) (or (or ?v_159 ?v_68) P27)) (or (or ?v_102 ?v_80) ?v_123)) (or (or ?v_124 ?v_70) ?v_125)) (or (or P32 P33) ?v_113)) (or ?v_206 ?v_80)) (or (or ?v_179 ?v_122) P28)) (or (or ?v_82 ?v_180) ?v_11)) (or (or P24 P1) P30)) (or (or ?v_127 ?v_164) ?v_60)) (or (or ?v_86 P19) ?v_10)) (or (or ?v_128 ?v_90) ?v_144)) (or (or P9 ?v_93) ?v_80)) (or (or ?v_33 ?v_96) ?v_196)) (or (or ?v_96 ?v_129) ?v_130)) (or (or P22 P17) ?v_14)) (or (or P37 ?v_131) P20)) (or (or ?v_20 ?v_132) ?v_178)) (or (or ?v_68 P2) ?v_173)) (or (or ?v_157 ?v_63) ?v_55)) (or (or P1 ?v_43) P16)) (or (or ?v_129 ?v_113) ?v_15)) (or (or ?v_94 ?v_120) P30)) (or (or P28 ?v_134) ?v_181)) (or (or P11 ?v_82) ?v_100)) (or (or ?v_172 ?v_75) ?v_105)) (or (or ?v_22 P23) ?v_51)) (or (or ?v_12 ?v_187) ?v_63)) (or (or P23 P22) ?v_137)) (or (or P15 ?v_98) ?v_111)) (or (or P6 ?v_16) ?v_36)) (or (or ?v_9 ?v_138) ?v_126)) (or (or ?v_36 ?v_131) P32)) (or (or ?v_139 ?v_101) ?v_15)) (or (or ?v_140 ?v_162) ?v_143)) (or (or ?v_75 P20) ?v_46)) (or (or ?v_141 ?v_131) P36)) (or (or ?v_142 ?v_116) P19)) (or (or ?v_152 P19) ?v_143)) (or (or ?v_45 ?v_144) ?v_145)) (or (or ?v_82 ?v_71) ?v_146)) (or (or ?v_147 ?v_53) ?v_144)) (or (or P16 P6) ?v_148)) (or (or ?v_60 P26) P8)) (or (or ?v_58 ?v_158) ?v_150)) (or (or ?v_58 ?v_82) P17)) (or (or ?v_102 P24) ?v_58)) (or (or P24 P33) ?v_95)) (or (or ?v_14 ?v_151) ?v_44)) (or (or ?v_152 ?v_18) ?v_63)) (or (or ?v_62 ?v_21) ?v_153)) (or (or ?v_17 ?v_33) ?v_125)) (or (or ?v_1 ?v_27) ?v_101)) (or (or ?v_177 ?v_73) ?v_17)) (or (or P24 ?v_35) P2)) (or (or ?v_154 ?v_155) ?v_156)) (or (or ?v_82 ?v_129) ?v_38)) (or (or ?v_157 ?v_93) ?v_114)) (or (or ?v_182 P16) P2)) (or (or ?v_137 ?v_43) ?v_158)) (or (or ?v_130 ?v_20) ?v_86)) (or (or ?v_100 ?v_35) ?v_14)) (or (or P38 P33) ?v_2)) (or (or P17 ?v_14) ?v_159)) (or (or ?v_160 ?v_113) ?v_40)) (or (or ?v_158 ?v_161) ?v_157)) (or (or ?v_109 P32) ?v_162)) (or (or ?v_83 ?v_163) ?v_37)) (or (or P14 ?v_86) ?v_53)) (or (or ?v_164 ?v_20) ?v_118)) (or (or ?v_28 ?v_60) ?v_124)) (or (or ?v_165 ?v_8) ?v_18)) (or (or ?v_166 ?v_61) ?v_129)) (or (or ?v_82 ?v_167) ?v_98)) (or (or P3 ?v_168) ?v_149)) (or (or ?v_169 ?v_137) ?v_85)) (or (or ?v_105 P1) ?v_170)) (or (or ?v_117 ?v_171) ?v_76)) (or (or ?v_99 ?v_172) ?v_148)) (or (or ?v_26 P33) ?v_173)) (or (or ?v_105 P16) ?v_174)) (or (or ?v_41 ?v_98) ?v_175)) (or (or ?v_176 P32) ?v_13)) (or (or ?v_148 ?v_45) ?v_73)) (or (or ?v_43 P21) ?v_74)) (or (or ?v_155 P18) ?v_58)) (or (or ?v_18 ?v_106) ?v_198)) (or (or ?v_204 ?v_56) ?v_113)) (or (or P3 ?v_118) P6)) (or (or ?v_25 P21) ?v_141)) (or (or ?v_57 ?v_4) ?v_111)) (or ?v_194 ?v_18)) (or (or ?v_16 ?v_19) ?v_65)) (or (or P20 ?v_109) ?v_83)) (or (or ?v_156 ?v_111) ?v_177)) (or (or ?v_109 ?v_173) ?v_11)) (or (or ?v_74 ?v_7) P2)) (or (or ?v_19 ?v_54) P5)) (or (or ?v_162 ?v_171) ?v_47)) (or (or ?v_104 ?v_168) ?v_178)) (or (or ?v_42 ?v_143) P12)) (or (or ?v_154 ?v_179) P31)) (or (or ?v_95 ?v_31) ?v_28)) (or (or ?v_50 P6) ?v_170)) (or (or ?v_152 ?v_152) ?v_44)) (or (or P23 ?v_207) P5)) (or (or ?v_67 ?v_180) ?v_147)) (or (or ?v_109 ?v_132) ?v_21)) (or (or ?v_181 ?v_166) P32)) (or (or ?v_79 ?v_144) P17)) (or (or ?v_182 ?v_186) ?v_42)) (or (or ?v_26 ?v_52) P21)) (or (or ?v_130 ?v_74) ?v_115)) (or (or ?v_162 ?v_181) ?v_7)) (or (or ?v_52 ?v_44) ?v_28)) (or (or P30 P4) ?v_10)) (or (or P11 ?v_166) ?v_167)) (or (or ?v_29 ?v_173) P17)) (or (or P35 ?v_93) ?v_49)) (or (or ?v_188 ?v_183) P12)) (or (or ?v_101 ?v_62) ?v_200)) (or (or ?v_56 P8) P19)) (or (or ?v_169 ?v_159) ?v_117)) (or (or ?v_129 ?v_128) ?v_182)) (or (or P18 ?v_0) ?v_43)) (or (or ?v_184 ?v_185) ?v_64)) (or (or ?v_40 ?v_178) ?v_189)) (or (or ?v_103 P26) ?v_19)) (or (or ?v_186 ?v_27) ?v_155)) (or (or ?v_111 ?v_18) ?v_181)) (or (or ?v_73 ?v_35) ?v_10)) (or (or ?v_164 ?v_161) ?v_135)) (or (or P15 ?v_119) ?v_27)) (or (or ?v_157 ?v_164) ?v_107)) (or (or ?v_124 ?v_155) P35)) (or (or ?v_176 ?v_13) ?v_18)) (or (or P39 ?v_10) ?v_126)) (or (or ?v_77 ?v_134) ?v_18)) (or (or ?v_75 ?v_86) ?v_169)) (or (or ?v_123 ?v_118) ?v_25)) (or (or ?v_147 ?v_96) ?v_93)) (or (or P23 ?v_129) ?v_71)) (or (or ?v_59 ?v_71) ?v_3)) (or (or ?v_44 ?v_30) ?v_17)) (or (or P31 ?v_132) ?v_153)) (or (or P23 ?v_142) ?v_187)) (or (or ?v_41 ?v_148) ?v_110)) (or (or ?v_1 ?v_33) ?v_118)) (or (or ?v_166 ?v_55) P20)) (or (or ?v_11 ?v_14) P12)) (or (or ?v_126 ?v_173) ?v_72)) (or (or ?v_52 ?v_76) ?v_162)) (or (or ?v_188 ?v_50) ?v_133)) (or (or P19 ?v_14) ?v_189)) (or (or ?v_44 ?v_22) ?v_99)) (or (or ?v_119 ?v_170) ?v_21)) (or (or ?v_85 ?v_138) ?v_185)) (or (or P12 ?v_121) ?v_134)) (or (or ?v_3 ?v_115) ?v_128)) (or (or ?v_190 ?v_83) ?v_143)) (or (or ?v_117 ?v_11) ?v_134)) (or (or ?v_191 ?v_152) P16)) (or (or ?v_43 ?v_74) P20)) (or (or ?v_51 P11) P9)) (or (or ?v_143 ?v_155) ?v_106)) (or (or P22 ?v_82) ?v_94)) (or (or ?v_13 ?v_71) ?v_139)) (or (or ?v_65 P18) ?v_94)) (or (or ?v_64 ?v_176) P32)) (or (or ?v_82 ?v_186) P3)) (or (or ?v_147 ?v_7) ?v_191)) (or (or ?v_107 ?v_111) ?v_40)) (or (or P19 ?v_192) ?v_62)) (or (or ?v_193 ?v_60) ?v_73)) (or (or P6 (not ?v_170)) ?v_113)) (or (or ?v_185 ?v_14) ?v_114)) (or (or ?v_53 ?v_171) P17)) (or (or ?v_10 ?v_93) ?v_12)) (or ?v_194 ?v_136)) (or (or ?v_183 ?v_122) P6)) (or (or ?v_112 ?v_186) ?v_74)) (or (or ?v_110 ?v_139) ?v_4)) (or (or P39 ?v_190) ?v_29)) (or (or ?v_147 ?v_54) P20)) (or (or ?v_166 P31) ?v_19)) (or (or ?v_115 ?v_74) ?v_104)) (or (or ?v_99 ?v_57) ?v_154)) (or (or ?v_17 ?v_123) ?v_54)) (or (or ?v_195 ?v_151) ?v_135)) (or (or ?v_170 ?v_196) ?v_84)) (or (or P25 ?v_110) ?v_65)) (or (or ?v_59 P21) ?v_75)) (or (or ?v_118 ?v_181) ?v_18)) (or (or ?v_201 ?v_161) ?v_127)) (or (or ?v_65 P8) ?v_19)) (or (or ?v_86 ?v_12) ?v_113)) (or (or ?v_175 ?v_3) P25)) (or (or ?v_189 ?v_22) ?v_34)) (or (or ?v_85 ?v_168) ?v_131)) (or ?v_202 ?v_134)) (or (or ?v_18 P39) ?v_1)) (or (or ?v_120 ?v_25) ?v_150)) (or (or ?v_17 P8) ?v_0)) (or (or ?v_43 ?v_44) ?v_148)) (or (or ?v_58 ?v_36) ?v_136)) (or (or ?v_166 ?v_96) ?v_197)) (or (or ?v_179 ?v_25) ?v_72)) (or (or ?v_89 ?v_120) ?v_134)) (or (or ?v_102 ?v_8) P12)) (or (or ?v_56 ?v_185) ?v_44)) (or (or ?v_105 ?v_28) ?v_49)) (or (or ?v_196 ?v_164) ?v_127)) (or (or ?v_124 P11) ?v_151)) (or (or P18 ?v_115) P1)) (or (or ?v_80 ?v_140) ?v_120)) (or (or P0 ?v_156) ?v_93)) (or (or P12 ?v_94) ?v_132)) (or (or ?v_171 ?v_32) ?v_149)) (or (or ?v_181 ?v_157) ?v_134)) (or (or P39 P5) P18)) (or (or ?v_128 ?v_198) ?v_199)) (or (or ?v_144 P39) P24)) (or (or ?v_110 ?v_159) ?v_174)) (or (or P20 ?v_80) ?v_51)) (or (or P36 ?v_20) P9)) (or (or ?v_200 ?v_119) ?v_68)) (or (or ?v_188 ?v_85) ?v_116)) (or (or ?v_4 ?v_130) ?v_163)) (or (or P30 ?v_76) ?v_192)) (or (or ?v_129 ?v_173) ?v_70)) (or (or ?v_162 ?v_118) ?v_33)) (or (or ?v_106 ?v_118) ?v_177)) (or (or ?v_131 ?v_7) P16)) (or (or ?v_156 ?v_187) ?v_60)) (or (or ?v_102 ?v_16) ?v_109)) (or (or ?v_63 ?v_77) ?v_44)) (or (or ?v_127 ?v_117) ?v_162)) (or (or P31 ?v_67) ?v_153)) (or (or ?v_110 ?v_35) ?v_153)) (or (or ?v_192 P17) P5)) (or (or ?v_23 ?v_86) ?v_6)) (or (or ?v_49 ?v_67) ?v_125)) (or (or ?v_30 ?v_58) ?v_32)) (or (or ?v_74 ?v_141) ?v_109)) (or (or P5 P26) ?v_193)) (or (or ?v_170 P13) P8)) (or (or ?v_145 ?v_188) ?v_180)) (or (or ?v_40 ?v_2) ?v_129)) (or (or ?v_180 ?v_35) ?v_129)) (or (or ?v_112 ?v_145) ?v_81)) (or (or P23 ?v_102) ?v_139)) (or (or ?v_122 ?v_173) P5)) (or (or ?v_162 ?v_72) ?v_88)) (or (or ?v_13 ?v_153) P19)) (or (or ?v_83 ?v_205) ?v_86)) (or (or ?v_129 ?v_142) ?v_164)) (or (or ?v_89 ?v_115) ?v_201)) (or (or ?v_151 ?v_11) ?v_90)) (or (or ?v_34 ?v_137) P13)) (or (or ?v_62 ?v_183) ?v_44)) (or (or ?v_133 ?v_6) ?v_7)) (or (or ?v_89 ?v_197) ?v_180)) (or ?v_202 ?v_203)) (or (or P23 ?v_86) ?v_179)) (or (or ?v_138 ?v_83) ?v_77)) (or (or ?v_21 ?v_154) P1)) (or (or ?v_147 ?v_193) ?v_43)) (or (or P37 ?v_43) P18)) (or (or ?v_73 P9) ?v_191)) (or (or ?v_110 P12) P0)) (or (or ?v_61 P34) ?v_140)) (or (or ?v_52 ?v_180) ?v_119)) (or (or P39 ?v_23) ?v_141)) (or (or ?v_83 P23) ?v_151)) (or (or ?v_81 ?v_135) ?v_122)) (or (or P8 ?v_76) ?v_184)) (or (or P22 ?v_12) ?v_57)) (or (or ?v_113 ?v_33) ?v_167)) (or (or ?v_115 ?v_49) ?v_76)) (or (or ?v_71 ?v_111) ?v_129)) (or (or ?v_135 ?v_153) ?v_70)) (or (or ?v_65 ?v_72) ?v_189)) (or (or ?v_27 ?v_59) ?v_15)) (or (or P9 ?v_63) ?v_172)) (or (or ?v_97 ?v_149) ?v_164)) (or (or ?v_105 ?v_127) P35)) (or (or ?v_93 ?v_124) ?v_89)) (or (or ?v_108 ?v_125) ?v_204)) (or (or P28 ?v_96) P12)) (or (or ?v_44 ?v_193) ?v_69)) (or (or ?v_104 P17) ?v_118)) (or (or ?v_34 ?v_140) ?v_111)) (or (or ?v_62 ?v_124) ?v_96)) (or (or ?v_116 P9) ?v_33)) (or (or ?v_23 P31) ?v_38)) (or (or P39 ?v_156) ?v_107)) (or (or ?v_108 ?v_191) ?v_0)) (or (or P21 ?v_165) ?v_152)) (or (or ?v_63 ?v_49) ?v_27)) (or (or P2 ?v_2) ?v_111)) (or (or ?v_17 ?v_52) P31)) (or (or P24 ?v_96) ?v_99)) (or (or ?v_35 ?v_148) ?v_44)) (or (or ?v_113 ?v_114) ?v_107)) (or (or ?v_130 ?v_30) ?v_116)) (or (or ?v_95 ?v_137) ?v_27)) (or (or ?v_56 ?v_2) ?v_83)) (or (or ?v_163 P39) ?v_94)) (or (or ?v_169 ?v_149) ?v_97)) (or (or ?v_115 ?v_154) ?v_84)) (or (or ?v_41 ?v_45) ?v_160)) (or (or ?v_95 ?v_109) P36)) (or (or ?v_124 ?v_120) ?v_71)) (or (or ?v_165 ?v_205) ?v_54)) (or (or ?v_109 ?v_153) ?v_130)) (or (or ?v_46 ?v_16) P30)) (or (or ?v_44 ?v_161) ?v_12)) (or (or ?v_108 ?v_93) ?v_19)) (or (or ?v_122 ?v_70) P23)) (or (or ?v_201 ?v_103) ?v_117)) (or (or P7 P32) ?v_97)) (or (or ?v_169 ?v_162) P0)) (or (or ?v_176 ?v_141) ?v_86)) (or (or ?v_170 ?v_2) ?v_40)) (or ?v_206 P23)) (or (or ?v_28 ?v_121) ?v_124)) (or (or ?v_148 ?v_2) ?v_151)) (or (or ?v_113 ?v_184) ?v_168)) (or (or ?v_9 P20) ?v_53)) (or (or ?v_71 ?v_54) ?v_67)) (or (or ?v_141 ?v_87) ?v_136)) (or (or ?v_115 ?v_26) ?v_128)) (or (or P36 P17) ?v_147)) (or (or ?v_159 ?v_142) ?v_136)) (or (or P12 ?v_178) P11)) (or (or P11 P21) ?v_140)) (or (or ?v_118 ?v_147) ?v_160)) (or (or ?v_11 ?v_183) ?v_150)) (or (or P26 P36) P32)) (or (or P6 ?v_7) ?v_73)) (or (or P38 ?v_135) ?v_165)) (or (or ?v_56 ?v_85) ?v_7)) (or (or ?v_28 ?v_182) ?v_41)) (or (or P32 ?v_126) P26)) (or (or ?v_73 ?v_124) ?v_108)) (or (or ?v_158 P11) ?v_189)) (or (or ?v_191 ?v_38) ?v_150)) (or (or ?v_153 ?v_126) ?v_29)) (or (or ?v_100 ?v_165) P19)) (or (or P31 ?v_138) ?v_27)) (or (or ?v_59 ?v_76) ?v_21)) (or (or ?v_207 ?v_63) ?v_172)) (or (or ?v_119 ?v_174) P3)) (or (or ?v_171 ?v_120) P9)) (or (or ?v_110 ?v_50) ?v_193)) (or (or ?v_208 ?v_123) ?v_69))))))))))))))))))))))))))))))))
(check-sat)
(exit)
